p cnf 290 990
a 2 3 4 5 9 14 16 18 19 20 23 25 27 28 30 32 34 35 37 39 41 43 45 47 49 52 53 60 62 66 70 72 74 78 0
e 1 6 7 8 10 11 12 13 15 17 21 22 24 26 29 31 33 36 38 40 42 44 46 48 50 51 54 55 56 57 58 59 61 63 64 65 67 68 69 71 73 75 76 77 79 80 81 82 83 84 85 86 87 88 89 90 91 92 93 94 95 96 97 98 99 100 101 102 103 104 105 106 107 108 109 110 111 112 113 114 115 116 117 118 119 120 121 122 123 124 125 126 127 128 129 130 131 132 133 134 135 136 137 138 139 140 141 142 143 144 145 146 147 148 149 150 151 152 153 154 155 156 157 158 159 160 161 162 163 164 165 166 167 168 169 170 171 172 173 174 175 176 177 178 179 180 181 182 183 184 185 186 187 188 189 190 191 192 193 194 195 196 197 198 199 200 201 202 203 204 205 206 207 208 209 210 211 212 213 214 215 216 217 218 219 220 221 222 223 224 225 226 227 228 229 230 231 232 233 234 235 236 237 238 239 240 241 242 243 244 245 246 247 248 249 250 251 252 253 254 255 256 257 258 259 260 261 262 263 264 265 266 267 268 269 270 271 272 273 274 275 276 277 278 279 280 281 282 283 284 285 286 287 288 289 290 0
1 0
4 -6 0
5 -6 0
-4 -5 6 0
4 -7 0
-5 -7 0
-4 5 7 0
4 8 0
-6 8 0
-7 8 0
-4 6 7 -8 0
-9 10 0
9 10 0
3 -11 0
8 -11 0
10 -11 0
-3 -8 -10 11 0
-3 -12 0
8 -12 0
3 -8 12 0
-11 13 0
-12 13 0
11 12 -13 0
-14 15 0
14 15 0
-16 17 0
16 17 0
19 -21 0
-20 -21 0
-19 20 21 0
19 22 0
-21 22 0
-19 21 -22 0
-23 24 0
23 24 0
24 -26 0
25 -26 0
-24 -25 26 0
-28 29 0
28 29 0
29 -31 0
-30 -31 0
-29 30 31 0
29 -33 0
30 -33 0
32 -33 0
-29 -30 -32 33 0
29 -36 0
30 -36 0
-32 -36 0
34 -36 0
35 -36 0
-29 -30 32 -34 -35 36 0
29 -38 0
30 -38 0
-32 -38 0
34 -38 0
-35 -38 0
-37 -38 0
-29 -30 32 -34 35 37 38 0
29 -40 0
30 -40 0
-32 -40 0
-34 -40 0
-39 -40 0
-29 -30 32 34 39 40 0
29 -42 0
30 -42 0
-32 -42 0
-34 -42 0
39 -42 0
41 -42 0
-29 -30 32 34 -39 -41 42 0
29 -44 0
30 -44 0
-32 -44 0
34 -44 0
-35 -44 0
37 -44 0
43 -44 0
-29 -30 32 -34 35 -37 -43 44 0
29 -46 0
30 -46 0
-32 -46 0
34 -46 0
-35 -46 0
37 -46 0
-43 -46 0
45 -46 0
-29 -30 32 -34 35 -37 43 -45 46 0
-47 48 0
47 48 0
29 -50 0
30 -50 0
-32 -50 0
-34 -50 0
39 -50 0
-41 -50 0
48 -50 0
49 -50 0
-29 -30 32 34 -39 41 -48 -49 50 0
29 -51 0
30 -51 0
-32 -51 0
-34 -51 0
39 -51 0
-41 -51 0
48 -51 0
-49 -51 0
-29 -30 32 34 -39 41 -48 49 51 0
52 -54 0
53 -54 0
-52 -53 54 0
52 -55 0
-53 -55 0
-52 53 55 0
52 56 0
-54 56 0
-55 56 0
-52 54 55 -56 0
29 -57 0
30 -57 0
-32 -57 0
34 -57 0
-35 -57 0
37 -57 0
-43 -57 0
-45 -57 0
56 -57 0
-29 -30 32 -34 35 -37 43 45 -56 57 0
-31 58 0
-33 58 0
-36 58 0
-38 58 0
-40 58 0
-42 58 0
-44 58 0
-46 58 0
-50 58 0
-51 58 0
-57 58 0
31 33 36 38 40 42 44 46 50 51 57 -58 0
24 -59 0
-25 -59 0
-27 -59 0
58 -59 0
-24 25 27 -58 59 0
24 -61 0
-25 -61 0
27 -61 0
-60 -61 0
-24 25 -27 60 61 0
24 -63 0
-25 -63 0
27 -63 0
60 -63 0
-62 -63 0
-24 25 -27 -60 62 63 0
24 -64 0
-25 -64 0
27 -64 0
60 -64 0
62 -64 0
-24 25 -27 -60 -62 64 0
-59 65 0
-61 65 0
-63 65 0
-64 65 0
59 61 63 64 -65 0
65 -67 0
66 -67 0
-65 -66 67 0
65 -68 0
-66 -68 0
-65 66 68 0
-26 69 0
-67 69 0
-68 69 0
26 67 68 -69 0
-70 71 0
70 71 0
18 -73 0
22 -73 0
69 -73 0
71 -73 0
72 -73 0
-18 -22 -69 -71 -72 73 0
-74 75 0
74 75 0
18 -76 0
22 -76 0
69 -76 0
71 -76 0
-72 -76 0
75 -76 0
-18 -22 -69 -71 72 -75 76 0
-73 77 0
-76 77 0
73 76 -77 0
77 -79 0
78 -79 0
-77 -78 79 0
77 -80 0
-78 -80 0
-77 78 80 0
18 81 0
-79 81 0
-80 81 0
-18 79 80 -81 0
2 -82 0
13 -82 0
15 -82 0
17 -82 0
81 -82 0
-2 -13 -15 -17 -81 82 0
-2 -83 0
13 -83 0
15 -83 0
17 -83 0
2 -13 -15 -17 83 0
-82 84 0
-83 84 0
82 83 -84 0
-9 85 0
9 85 0
3 -86 0
85 -86 0
-3 -85 86 0
-86 87 0
3 87 0
86 -3 -87 0
87 -88 0
-18 -88 0
-87 18 88 0
87 -89 0
24 -89 0
25 -89 0
-87 -24 -25 89 0
87 -90 0
24 -90 0
-25 -90 0
27 -90 0
60 -90 0
-62 -90 0
-87 -24 25 -27 -60 62 90 0
87 -91 0
24 -91 0
-25 -91 0
27 -91 0
60 -91 0
62 -91 0
-87 -24 25 -27 -60 -62 91 0
87 -92 0
24 -92 0
-25 -92 0
27 -92 0
-60 -92 0
-87 -24 25 -27 60 92 0
87 -93 0
28 -93 0
-87 -28 93 0
87 -94 0
-28 -94 0
-87 28 94 0
-93 95 0
-94 95 0
93 94 -95 0
-31 96 0
-33 96 0
-36 96 0
-38 96 0
-40 96 0
-42 96 0
-44 96 0
-46 96 0
31 33 36 38 40 42 44 46 -96 0
95 -97 0
96 -97 0
-95 -96 97 0
95 -98 0
29 -98 0
30 -98 0
-32 -98 0
34 -98 0
-35 -98 0
37 -98 0
-43 -98 0
-45 -98 0
56 -98 0
-95 -29 -30 32 -34 35 -37 43 45 -56 98 0
-50 99 0
-51 99 0
50 51 -99 0
95 -100 0
99 -100 0
-95 -99 100 0
-97 101 0
-98 101 0
-100 101 0
97 98 100 -101 0
101 -102 0
24 -102 0
-25 -102 0
-27 -102 0
58 -102 0
-101 -24 25 27 -58 102 0
-90 103 0
-91 103 0
-92 103 0
-102 103 0
90 91 92 102 -103 0
103 -104 0
65 -104 0
66 -104 0
-103 -65 -66 104 0
103 -105 0
65 -105 0
-66 -105 0
-103 -65 66 105 0
-89 106 0
-104 106 0
-105 106 0
89 104 105 -106 0
106 -107 0
18 -107 0
22 -107 0
69 -107 0
71 -107 0
72 -107 0
-106 -18 -22 -69 -71 -72 107 0
106 -108 0
18 -108 0
22 -108 0
69 -108 0
71 -108 0
-72 -108 0
75 -108 0
-106 -18 -22 -69 -71 72 -75 108 0
-107 109 0
-108 109 0
107 108 -109 0
-79 110 0
-80 110 0
79 80 -110 0
109 -111 0
110 -111 0
-109 -110 111 0
-88 112 0
-111 112 0
88 111 -112 0
2 -113 0
112 -113 0
-2 -112 113 0
-2 -114 0
87 -114 0
2 -87 114 0
-113 115 0
-114 115 0
113 114 -115 0
-9 116 0
9 116 0
3 -117 0
116 -117 0
-3 -116 117 0
-117 118 0
3 118 0
117 -3 -118 0
118 -119 0
-18 -119 0
-118 18 119 0
118 -120 0
24 -120 0
25 -120 0
-118 -24 -25 120 0
118 -121 0
24 -121 0
-25 -121 0
27 -121 0
60 -121 0
-62 -121 0
-118 -24 25 -27 -60 62 121 0
118 -122 0
24 -122 0
-25 -122 0
27 -122 0
60 -122 0
62 -122 0
-118 -24 25 -27 -60 -62 122 0
118 -123 0
24 -123 0
-25 -123 0
27 -123 0
-60 -123 0
-118 -24 25 -27 60 123 0
118 -124 0
28 -124 0
-118 -28 124 0
118 -125 0
-28 -125 0
-118 28 125 0
-124 126 0
-125 126 0
124 125 -126 0
-31 127 0
-33 127 0
-36 127 0
-38 127 0
-40 127 0
-42 127 0
-44 127 0
-46 127 0
31 33 36 38 40 42 44 46 -127 0
126 -128 0
127 -128 0
-126 -127 128 0
126 -129 0
29 -129 0
30 -129 0
-32 -129 0
34 -129 0
-35 -129 0
37 -129 0
-43 -129 0
-45 -129 0
56 -129 0
-126 -29 -30 32 -34 35 -37 43 45 -56 129 0
126 -130 0
99 -130 0
-126 -99 130 0
-128 131 0
-129 131 0
-130 131 0
128 129 130 -131 0
131 -132 0
24 -132 0
-25 -132 0
-27 -132 0
58 -132 0
-131 -24 25 27 -58 132 0
-121 133 0
-122 133 0
-123 133 0
-132 133 0
121 122 123 132 -133 0
133 -134 0
65 -134 0
66 -134 0
-133 -65 -66 134 0
133 -135 0
65 -135 0
-66 -135 0
-133 -65 66 135 0
-120 136 0
-134 136 0
-135 136 0
120 134 135 -136 0
136 -137 0
18 -137 0
22 -137 0
69 -137 0
71 -137 0
72 -137 0
-136 -18 -22 -69 -71 -72 137 0
136 -138 0
18 -138 0
22 -138 0
69 -138 0
71 -138 0
-72 -138 0
75 -138 0
-136 -18 -22 -69 -71 72 -75 138 0
-137 139 0
-138 139 0
137 138 -139 0
139 -140 0
110 -140 0
-139 -110 140 0
-119 141 0
-140 141 0
119 140 -141 0
2 -142 0
141 -142 0
-2 -141 142 0
-2 -143 0
118 -143 0
2 -118 143 0
-142 144 0
-143 144 0
142 143 -144 0
147 -149 0
148 -149 0
-147 -148 149 0
147 -150 0
-148 -150 0
-147 148 150 0
147 151 0
-149 151 0
-150 151 0
-147 149 150 -151 0
-152 153 0
152 153 0
146 -154 0
151 -154 0
153 -154 0
-146 -151 -153 154 0
-146 -155 0
151 -155 0
146 -151 155 0
-154 156 0
-155 156 0
154 155 -156 0
-157 158 0
157 158 0
-159 160 0
159 160 0
162 -164 0
-163 -164 0
-162 163 164 0
162 165 0
-164 165 0
-162 164 -165 0
-166 167 0
166 167 0
167 -169 0
168 -169 0
-167 -168 169 0
-171 172 0
171 172 0
172 -174 0
-173 -174 0
-172 173 174 0
172 -176 0
173 -176 0
175 -176 0
-172 -173 -175 176 0
172 -179 0
173 -179 0
-175 -179 0
177 -179 0
178 -179 0
-172 -173 175 -177 -178 179 0
172 -181 0
173 -181 0
-175 -181 0
177 -181 0
-178 -181 0
-180 -181 0
-172 -173 175 -177 178 180 181 0
172 -183 0
173 -183 0
-175 -183 0
-177 -183 0
-182 -183 0
-172 -173 175 177 182 183 0
172 -185 0
173 -185 0
-175 -185 0
-177 -185 0
182 -185 0
184 -185 0
-172 -173 175 177 -182 -184 185 0
172 -187 0
173 -187 0
-175 -187 0
177 -187 0
-178 -187 0
180 -187 0
186 -187 0
-172 -173 175 -177 178 -180 -186 187 0
172 -189 0
173 -189 0
-175 -189 0
177 -189 0
-178 -189 0
180 -189 0
-186 -189 0
188 -189 0
-172 -173 175 -177 178 -180 186 -188 189 0
-190 191 0
190 191 0
172 -193 0
173 -193 0
-175 -193 0
-177 -193 0
182 -193 0
-184 -193 0
191 -193 0
192 -193 0
-172 -173 175 177 -182 184 -191 -192 193 0
172 -194 0
173 -194 0
-175 -194 0
-177 -194 0
182 -194 0
-184 -194 0
191 -194 0
-192 -194 0
-172 -173 175 177 -182 184 -191 192 194 0
195 -197 0
196 -197 0
-195 -196 197 0
195 -198 0
-196 -198 0
-195 196 198 0
195 199 0
-197 199 0
-198 199 0
-195 197 198 -199 0
172 -200 0
173 -200 0
-175 -200 0
177 -200 0
-178 -200 0
180 -200 0
-186 -200 0
-188 -200 0
199 -200 0
-172 -173 175 -177 178 -180 186 188 -199 200 0
-174 201 0
-176 201 0
-179 201 0
-181 201 0
-183 201 0
-185 201 0
-187 201 0
-189 201 0
-193 201 0
-194 201 0
-200 201 0
174 176 179 181 183 185 187 189 193 194 200 -201 0
167 -202 0
-168 -202 0
-170 -202 0
201 -202 0
-167 168 170 -201 202 0
167 -204 0
-168 -204 0
170 -204 0
-203 -204 0
-167 168 -170 203 204 0
167 -206 0
-168 -206 0
170 -206 0
203 -206 0
-205 -206 0
-167 168 -170 -203 205 206 0
167 -207 0
-168 -207 0
170 -207 0
203 -207 0
205 -207 0
-167 168 -170 -203 -205 207 0
-202 208 0
-204 208 0
-206 208 0
-207 208 0
202 204 206 207 -208 0
208 -210 0
209 -210 0
-208 -209 210 0
208 -211 0
-209 -211 0
-208 209 211 0
-169 212 0
-210 212 0
-211 212 0
169 210 211 -212 0
-213 214 0
213 214 0
161 -216 0
165 -216 0
212 -216 0
214 -216 0
215 -216 0
-161 -165 -212 -214 -215 216 0
-217 218 0
217 218 0
161 -219 0
165 -219 0
212 -219 0
214 -219 0
-215 -219 0
218 -219 0
-161 -165 -212 -214 215 -218 219 0
-216 220 0
-219 220 0
216 219 -220 0
220 -222 0
221 -222 0
-220 -221 222 0
220 -223 0
-221 -223 0
-220 221 223 0
161 224 0
-222 224 0
-223 224 0
-161 222 223 -224 0
145 -225 0
156 -225 0
158 -225 0
160 -225 0
224 -225 0
-145 -156 -158 -160 -224 225 0
-145 -226 0
156 -226 0
158 -226 0
160 -226 0
145 -156 -158 -160 226 0
-225 227 0
-226 227 0
225 226 -227 0
-152 228 0
152 228 0
146 -229 0
228 -229 0
-146 -228 229 0
-229 230 0
146 230 0
229 -146 -230 0
230 -231 0
-161 -231 0
-230 161 231 0
230 -232 0
167 -232 0
168 -232 0
-230 -167 -168 232 0
230 -233 0
167 -233 0
-168 -233 0
170 -233 0
203 -233 0
-205 -233 0
-230 -167 168 -170 -203 205 233 0
230 -234 0
167 -234 0
-168 -234 0
170 -234 0
203 -234 0
205 -234 0
-230 -167 168 -170 -203 -205 234 0
230 -235 0
167 -235 0
-168 -235 0
170 -235 0
-203 -235 0
-230 -167 168 -170 203 235 0
230 -236 0
171 -236 0
-230 -171 236 0
230 -237 0
-171 -237 0
-230 171 237 0
-236 238 0
-237 238 0
236 237 -238 0
-174 239 0
-176 239 0
-179 239 0
-181 239 0
-183 239 0
-185 239 0
-187 239 0
-189 239 0
174 176 179 181 183 185 187 189 -239 0
238 -240 0
239 -240 0
-238 -239 240 0
238 -241 0
172 -241 0
173 -241 0
-175 -241 0
177 -241 0
-178 -241 0
180 -241 0
-186 -241 0
-188 -241 0
199 -241 0
-238 -172 -173 175 -177 178 -180 186 188 -199 241 0
-193 242 0
-194 242 0
193 194 -242 0
238 -243 0
242 -243 0
-238 -242 243 0
-240 244 0
-241 244 0
-243 244 0
240 241 243 -244 0
244 -245 0
167 -245 0
-168 -245 0
-170 -245 0
201 -245 0
-244 -167 168 170 -201 245 0
-233 246 0
-234 246 0
-235 246 0
-245 246 0
233 234 235 245 -246 0
246 -247 0
208 -247 0
209 -247 0
-246 -208 -209 247 0
246 -248 0
208 -248 0
-209 -248 0
-246 -208 209 248 0
-232 249 0
-247 249 0
-248 249 0
232 247 248 -249 0
249 -250 0
161 -250 0
165 -250 0
212 -250 0
214 -250 0
215 -250 0
-249 -161 -165 -212 -214 -215 250 0
249 -251 0
161 -251 0
165 -251 0
212 -251 0
214 -251 0
-215 -251 0
218 -251 0
-249 -161 -165 -212 -214 215 -218 251 0
-250 252 0
-251 252 0
250 251 -252 0
-222 253 0
-223 253 0
222 223 -253 0
252 -254 0
253 -254 0
-252 -253 254 0
-231 255 0
-254 255 0
231 254 -255 0
145 -256 0
255 -256 0
-145 -255 256 0
-145 -257 0
230 -257 0
145 -230 257 0
-256 258 0
-257 258 0
256 257 -258 0
-152 259 0
152 259 0
146 -260 0
259 -260 0
-146 -259 260 0
-260 261 0
146 261 0
260 -146 -261 0
261 -262 0
-161 -262 0
-261 161 262 0
261 -263 0
167 -263 0
168 -263 0
-261 -167 -168 263 0
261 -264 0
167 -264 0
-168 -264 0
170 -264 0
203 -264 0
-205 -264 0
-261 -167 168 -170 -203 205 264 0
261 -265 0
167 -265 0
-168 -265 0
170 -265 0
203 -265 0
205 -265 0
-261 -167 168 -170 -203 -205 265 0
261 -266 0
167 -266 0
-168 -266 0
170 -266 0
-203 -266 0
-261 -167 168 -170 203 266 0
261 -267 0
171 -267 0
-261 -171 267 0
261 -268 0
-171 -268 0
-261 171 268 0
-267 269 0
-268 269 0
267 268 -269 0
-174 270 0
-176 270 0
-179 270 0
-181 270 0
-183 270 0
-185 270 0
-187 270 0
-189 270 0
174 176 179 181 183 185 187 189 -270 0
269 -271 0
270 -271 0
-269 -270 271 0
269 -272 0
172 -272 0
173 -272 0
-175 -272 0
177 -272 0
-178 -272 0
180 -272 0
-186 -272 0
-188 -272 0
199 -272 0
-269 -172 -173 175 -177 178 -180 186 188 -199 272 0
269 -273 0
242 -273 0
-269 -242 273 0
-271 274 0
-272 274 0
-273 274 0
271 272 273 -274 0
274 -275 0
167 -275 0
-168 -275 0
-170 -275 0
201 -275 0
-274 -167 168 170 -201 275 0
-264 276 0
-265 276 0
-266 276 0
-275 276 0
264 265 266 275 -276 0
276 -277 0
208 -277 0
209 -277 0
-276 -208 -209 277 0
276 -278 0
208 -278 0
-209 -278 0
-276 -208 209 278 0
-263 279 0
-277 279 0
-278 279 0
263 277 278 -279 0
279 -280 0
161 -280 0
165 -280 0
212 -280 0
214 -280 0
215 -280 0
-279 -161 -165 -212 -214 -215 280 0
279 -281 0
161 -281 0
165 -281 0
212 -281 0
214 -281 0
-215 -281 0
218 -281 0
-279 -161 -165 -212 -214 215 -218 281 0
-280 282 0
-281 282 0
280 281 -282 0
282 -283 0
253 -283 0
-282 -253 283 0
-262 284 0
-283 284 0
262 283 -284 0
145 -285 0
284 -285 0
-145 -284 285 0
-145 -286 0
261 -286 0
145 -261 286 0
-285 287 0
-286 287 0
285 286 -287 0
-258 -115 -288 0
258 115 -288 0
-258 115 288 0
258 -115 288 0
-287 -144 -289 0
287 144 -289 0
-287 144 289 0
287 -144 289 0
-288 -290 0
-289 -290 0
227 -290 0
288 289 -227 290 0
-84 290 0
